p cnf 12 50 
9 1 11 0
5 -10 2 0
7 -6 4 0
-11 1 6 0
-11 -1 -6 0
-8 -4 -6 0
1 7 -9 0
4 3 5 0
5 -2 -1 0
-10 5 1 0
2 12 7 0
9 4 -7 0
3 -9 6 0
10 -8 1 0
8 11 9 0
10 -3 7 0
-7 3 12 0
7 10 12 0
4 10 -2 0
-3 -2 10 0
-2 -9 11 0
7 10 1 0
8 3 -1 0
6 10 -9 0
-10 -1 6 0
-3 -9 -1 0
3 -9 -7 0
6 5 -12 0
8 7 10 0
-12 -9 -3 0
9 3 10 0
8 6 1 0
-7 3 -5 0
2 6 1 0
2 7 -8 0
12 7 11 0
-1 6 -10 0
5 -10 4 0
-11 -12 -3 0
6 1 5 0
11 -5 -4 0
-10 8 2 0
-7 -5 -4 0
-11 8 -4 0
8 -10 5 0
5 -2 -4 0
-3 -11 -6 0
-9 5 -1 0
-10 1 -4 0
8 -12 -10 0
